c SAT problem
p wcnf 215 1018
1 -60 -3150 0
1 -75 -76 0
1 75 60 0
1 -75 3135 0
1 -90 3075 0
1 -90 3120 0
1 90 3090 0
1 -90 -91 0
1 -105 3120 0
1 -3120 -196 0
1 3120 135 0
1 3120 -75 0
1 3120 60 0
1 -3135 -165 0
1 -3135 -135 0
1 -3135 -75 0
1 3135 120 0
1 -3135 -60 0
1 3150 196 0
1 3150 -136 0
1 -3150 -90 0
1 -3165 196 0
1 -3165 3150 0
1 -3165 -3166 0
1 -120 -3090 0
1 -120 121 0
1 135 -120 0
1 150 -165 0
1 150 -3120 0
1 150 -3060 0
1 -150 -3030 0
1 -150 -151 0
1 -150 3000 0
1 -150 -3135 0
1 -165 3075 0
1 -165 150 0
1 -165 -3030 0
1 -165 3000 0
1 -165 -3135 0
1 -3060 -225 0
1 -3060 195 0
1 3060 165 0
1 -3060 105 0
1 3060 240 0
1 3060 210 0
1 -3060 3061 0
1 3060 -120 0
1 3075 195 0
1 3075 165 0
1 3075 180 0
1 3075 3060 0
1 -3075 90 0
1 3075 -255 0
1 -3090 3105 0
1 -3090 -196 0
1 -3090 135 0
1 3090 211 0
1 -3090 181 0
1 -3090 150 0
1 -3090 -90 0
1 -3090 -255 0
1 -3105 226 0
1 -3105 -240 0
1 3105 150 0
1 -3105 -255 0
1 -180 3075 0
1 180 -3045 0
1 180 3015 0
1 180 -3060 0
1 180 3000 0
1 -195 3075 0
1 195 -3015 0
1 195 180 0
1 -195 -3060 0
1 -195 -3000 0
1 210 -3030 0
1 -225 -226 0
1 225 -3060 0
1 225 -3030 0
1 -225 -3000 0
1 3000 225 0
1 3000 150 0
1 3015 -225 0
1 3015 195 0
1 -3015 -3016 0
1 -3015 300 0
1 3030 -150 0
1 3030 3031 0
1 3030 -285 0
1 -3030 255 0
1 3045 225 0
1 -3045 -195 0
1 3045 300 0
1 -3045 270 0
1 3045 315 0
1 -3045 285 0
1 -61 76 0
1 61 -62 0
1 76 3330 0
1 91 -106 0
1 -91 -3285 0
1 106 3330 0
1 106 -3240 0
1 106 -105 0
1 -106 -3285 0
1 3300 -136 0
1 3300 -106 0
1 3300 182 0
1 -3300 151 0
1 -3300 -121 0
1 3315 3300 0
1 -3315 106 0
1 -3315 151 0
1 3315 61 0
1 3330 197 0
1 3330 -137 0
1 -3330 76 0
1 3330 -122 0
1 -3330 -61 0
1 -3345 137 0
1 -3345 -106 0
1 -3345 -76 0
1 3345 182 0
1 3345 -152 0
1 -3345 61 0
1 -121 -136 0
1 121 3240 0
1 -121 -120 0
1 121 122 0
1 -136 3285 0
1 -151 -3300 0
1 151 3210 0
1 -151 -3150 0
1 -151 150 0
1 151 3225 0
1 151 -3165 0
1 166 165 0
1 166 3270 0
1 -166 -167 0
1 -166 3285 0
1 166 -151 0
1 -166 3195 0
1 3240 -3255 0
1 3240 -226 0
1 -3240 166 0
1 3240 -3241 0
1 3240 -106 0
1 3240 241 0
1 3240 -121 0
1 -3240 -91 0
1 -3255 196 0
1 -3255 -166 0
1 3255 -136 0
1 -3255 3240 0
1 3255 241 0
1 -3255 181 0
1 3270 -256 0
1 3270 -197 0
1 -3270 3271 0
1 -3270 3285 0
1 -3270 182 0
1 -3270 151 0
1 -3285 -197 0
1 -3285 136 0
1 -3285 -241 0
1 3285 121 0
1 3285 91 0
1 -181 3105 0
1 -181 196 0
1 181 3210 0
1 181 -3150 0
1 -181 -180 0
1 -181 182 0
1 181 3255 0
1 181 3225 0
1 181 -3135 0
1 196 3240 0
1 -196 -3210 0
1 196 -3180 0
1 -196 -3120 0
1 196 -3255 0
1 -196 3165 0
1 -196 -3135 0
1 -211 -3180 0
1 -211 -3090 0
1 -211 -3225 0
1 -211 -3195 0
1 226 -3136 0
1 226 225 0
1 -226 -3105 0
1 -226 -3240 0
1 226 -3210 0
1 -226 -3151 0
1 -226 -211 0
1 -226 -3225 0
1 -3180 226 0
1 3180 -270 0
1 -3180 -240 0
1 3180 -211 0
1 3180 181 0
1 -3180 -285 0
1 -3195 196 0
1 3195 -3196 0
1 3195 -211 0
1 -3195 285 0
1 -3210 -226 0
1 3210 166 0
1 3210 -301 0
1 -3210 -271 0
1 3210 181 0
1 -3210 -3225 0
1 -3225 -196 0
1 -3225 301 0
1 -3225 181 0
1 -3225 151 0
1 240 -3180 0
1 -240 -241 0
1 -240 3060 0
1 240 -3166 0
1 255 -3075 0
1 255 -3045 0
1 -255 -3180 0
1 255 240 0
1 -270 -3136 0
1 270 -3106 0
1 270 3076 0
1 270 -3091 0
1 -270 -3061 0
1 270 -3030 0
1 270 -3195 0
1 -270 -285 0
1 -285 270 0
1 -285 -3151 0
1 285 3061 0
1 -285 -3030 0
1 -285 -286 0
1 3121 3136 0
1 -3121 -361 0
1 3121 -270 0
1 -3121 -3120 0
1 3121 3122 0
1 3121 -211 0
1 3121 -255 0
1 3136 -226 0
1 3136 330 0
1 -3136 300 0
1 3136 270 0
1 -3136 211 0
1 -3151 -3152 0
1 3151 -316 0
1 -3151 -285 0
1 3151 3166 0
1 -3166 361 0
1 -3166 3151 0
1 3166 -346 0
1 3166 -285 0
1 300 -3076 0
1 300 -3121 0
1 -300 3061 0
1 -300 -3000 0
1 315 -3076 0
1 -315 -3121 0
1 315 3000 0
1 -315 -316 0
1 -330 -3046 0
1 -330 -345 0
1 -330 3091 0
1 -330 3001 0
1 -345 -3136 0
1 -345 3106 0
1 345 -3046 0
1 345 -3091 0
1 -345 -3031 0
1 345 3001 0
1 -3061 -420 0
1 3061 -3076 0
1 -3061 390 0
1 3061 -360 0
1 -3061 -330 0
1 3061 -3060 0
1 3061 405 0
1 3061 3062 0
1 -3061 285 0
1 3076 -420 0
1 3076 -390 0
1 3076 -330 0
1 -3076 300 0
1 3076 -375 0
1 -3091 -391 0
1 -3091 -330 0
1 3091 300 0
1 3091 270 0
1 3091 -435 0
1 -3091 -3092 0
1 -3091 406 0
1 -3106 -3107 0
1 3106 420 0
1 -3106 -361 0
1 3106 330 0
1 -3106 -300 0
1 3106 270 0
1 360 3076 0
1 -375 3076 0
1 375 -360 0
1 -375 3031 0
1 375 3001 0
1 -390 -3016 0
1 390 3031 0
1 390 -3001 0
1 -3001 390 0
1 -3001 -360 0
1 3001 -3000 0
1 -3001 -3002 0
1 -3016 -3015 0
1 3016 -495 0
1 3031 480 0
1 3031 -450 0
1 -3031 390 0
1 -3031 -3046 0
1 3031 -330 0
1 3031 495 0
1 -3031 435 0
1 -3031 3030 0
1 3031 -375 0
1 -3031 3032 0
1 3046 -450 0
1 -3046 420 0
1 3046 -3045 0
1 -3046 3047 0
1 3046 -375 0
1 -3046 345 0
1 -62 -3525 0
1 -62 77 0
1 62 3480 0
1 -77 -76 0
1 -92 107 0
1 107 3525 0
1 107 -3495 0
1 107 -3435 0
1 -107 -3510 0
1 -107 -3420 0
1 -107 3480 0
1 107 -92 0
1 3480 -3495 0
1 3480 137 0
1 3480 -107 0
1 -3480 77 0
1 -3480 122 0
1 3495 -167 0
1 3495 107 0
1 3510 107 0
1 3510 -92 0
1 -3510 62 0
1 3525 -77 0
1 122 -3435 0
1 -137 -3435 0
1 137 -3480 0
1 -137 -122 0
1 137 3420 0
1 152 3465 0
1 152 -3405 0
1 152 151 0
1 152 3480 0
1 -152 3450 0
1 152 -3420 0
1 167 3330 0
1 167 3480 0
1 167 3495 0
1 -167 -3345 0
1 167 -152 0
1 167 -3420 0
1 -3420 -227 0
1 -3420 167 0
1 -3420 -107 0
1 -3420 3435 0
1 3420 212 0
1 3420 -182 0
1 -3420 3421 0
1 -3435 -197 0
1 -3435 -167 0
1 3435 -137 0
1 -3435 212 0
1 -3435 122 0
1 -3450 -257 0
1 -3450 -3451 0
1 3465 107 0
1 -3465 242 0
1 182 197 0
1 182 3405 0
1 -182 -3375 0
1 -182 3285 0
1 -182 3420 0
1 197 -3360 0
1 197 3270 0
1 -197 3435 0
1 197 -3345 0
1 -197 -3420 0
1 197 3390 0
1 212 3360 0
1 -212 -3331 0
1 -212 -3301 0
1 -212 -3270 0
1 -212 -3375 0
1 -212 211 0
1 212 -3316 0
1 -212 -3285 0
1 212 -3420 0
1 -212 3390 0
1 -227 -3331 0
1 -227 -3270 0
1 -227 -3405 0
1 227 -212 0
1 -227 3285 0
1 227 -3316 0
1 -227 -3390 0
1 3360 197 0
1 3360 -302 0
1 -3360 -241 0
1 3360 212 0
1 3360 182 0
1 3360 -152 0
1 -3360 -317 0
1 -3375 227 0
1 3375 -167 0
1 -3375 -212 0
1 -3375 317 0
1 3390 -302 0
1 3390 242 0
1 3390 -317 0
1 3390 287 0
1 3405 -167 0
1 -3405 3406 0
1 3405 272 0
1 3405 -242 0
1 3405 -182 0
1 241 -3331 0
1 -241 -3301 0
1 241 -3270 0
1 241 3210 0
1 -241 240 0
1 -241 242 0
1 -241 -3346 0
1 -241 -3316 0
1 -256 -3360 0
1 256 -257 0
1 -256 -3331 0
1 -256 3270 0
1 256 -3210 0
1 -256 -3225 0
1 -256 255 0
1 -271 -3301 0
1 -271 -3210 0
1 271 3286 0
1 -271 -286 0
1 -286 3360 0
1 286 -3301 0
1 -286 3210 0
1 286 271 0
1 -286 3256 0
1 286 -287 0
1 3301 -3300 0
1 -3301 -3302 0
1 -3301 -286 0
1 3316 -227 0
1 3316 -212 0
1 -3316 377 0
1 -3331 256 0
1 -3331 -3330 0
1 -3331 -227 0
1 -3331 -3332 0
1 -3331 -271 0
1 3346 227 0
1 -3346 212 0
1 -301 3271 0
1 -301 3241 0
1 -301 -3210 0
1 301 3180 0
1 -301 302 0
1 301 3316 0
1 301 -3256 0
1 301 3195 0
1 301 -3166 0
1 316 -3301 0
1 -316 -3241 0
1 -316 3195 0
1 316 3151 0
1 316 -3286 0
1 316 -3256 0
1 316 -315 0
1 316 317 0
1 -331 3226 0
1 331 -3181 0
1 331 3316 0
1 331 3166 0
1 346 3241 0
1 346 331 0
1 346 3316 0
1 346 -3226 0
1 -3241 -421 0
1 3241 361 0
1 -3241 -271 0
1 3241 -406 0
1 -3241 -316 0
1 3256 421 0
1 -3256 391 0
1 -3256 -436 0
1 3256 -376 0
1 -3256 -3257 0
1 3271 392 0
1 3271 362 0
1 -3271 331 0
1 3271 -301 0
1 3271 436 0
1 3271 -407 0
1 -3271 346 0
1 -3271 -316 0
1 -3286 -421 0
1 3286 -362 0
1 3286 -301 0
1 -3286 -271 0
1 -3286 -436 0
1 -3286 -3285 0
1 3286 -346 0
1 3286 -316 0
1 -361 -3106 0
1 -361 -360 0
1 -361 3151 0
1 -361 3121 0
1 361 -3091 0
1 376 -3136 0
1 -376 3106 0
1 -376 3241 0
1 376 3091 0
1 376 375 0
1 -376 3226 0
1 376 -3196 0
1 -376 -3166 0
1 391 -3137 0
1 391 3106 0
1 391 -3211 0
1 391 3181 0
1 391 3152 0
1 391 3226 0
1 406 -391 0
1 406 3091 0
1 406 405 0
1 -406 3196 0
1 406 3167 0
1 3181 -361 0
1 3181 -331 0
1 3181 -3182 0
1 3181 -406 0
1 3181 -346 0
1 -3181 3196 0
1 -3196 481 0
1 -3196 -420 0
1 3196 361 0
1 -3196 -3181 0
1 3196 496 0
1 -3196 -465 0
1 -3196 3195 0
1 3211 -481 0
1 -3211 -421 0
1 3211 -331 0
1 3211 -3212 0
1 3211 346 0
1 3226 -481 0
1 3226 -361 0
1 -3226 496 0
1 -3226 -466 0
1 3226 376 0
1 -3226 -3225 0
1 3226 3227 0
1 420 3137 0
1 -420 421 0
1 -420 -3091 0
1 -420 -3061 0
1 -420 3031 0
1 420 3196 0
1 -420 3167 0
1 -435 3106 0
1 -435 3076 0
1 -435 3181 0
1 -435 436 0
1 -450 451 0
1 -450 -3077 0
1 -450 -465 0
1 -465 -3137 0
1 465 450 0
1 465 -3077 0
1 -465 -3152 0
1 465 3031 0
1 -465 -3196 0
1 -3122 391 0
1 3122 -435 0
1 3122 541 0
1 -3137 450 0
1 3137 -420 0
1 3137 556 0
1 3137 495 0
1 3137 3122 0
1 -3137 -406 0
1 -3152 481 0
1 -3152 450 0
1 3152 -391 0
1 -3152 -556 0
1 -3152 526 0
1 3152 -3151 0
1 3152 406 0
1 -3152 -541 0
1 3167 496 0
1 480 -3107 0
1 -480 3077 0
1 -480 3046 0
1 -480 -3016 0
1 -480 -495 0
1 -480 3062 0
1 495 -480 0
1 -495 3137 0
1 -495 3077 0
1 -495 3046 0
1 -495 3062 0
1 -510 3077 0
1 510 525 0
1 510 -3062 0
1 510 -3002 0
1 525 3077 0
1 525 -3017 0
1 525 -3032 0
1 525 510 0
1 -3062 -480 0
1 -3062 450 0
1 3062 -3077 0
1 -3062 555 0
1 -3062 -525 0
1 3077 -480 0
1 3077 -450 0
1 -3077 555 0
1 3077 -525 0
1 -3077 -465 0
1 -3077 -570 0
1 -3092 -556 0
1 -3092 541 0
1 -3107 -556 0
1 -3107 -525 0
1 -3107 -465 0
1 -540 3077 0
1 540 555 0
1 540 -3002 0
1 -555 -3077 0
1 555 3062 0
1 555 -540 0
1 -570 -3017 0
1 585 -3047 0
1 -585 586 0
1 3002 -585 0
1 3002 525 0
1 -3002 570 0
1 -3002 -510 0
1 3017 3016 0
1 -3017 570 0
1 -3032 -555 0
1 3032 -525 0
1 -3047 585 0
1 -3047 -555 0
1 -3047 -3032 0
1 3047 570 0
1 3047 -540 0
1 242 -3526 0
1 242 -3496 0
1 -242 -3450 0
1 242 3420 0
1 -257 -3465 0
1 -257 242 0
1 257 -3420 0
1 257 -3390 0
1 272 3405 0
1 272 271 0
1 272 -3511 0
1 272 -3481 0
1 272 -3451 0
1 -272 3421 0
1 287 3526 0
1 -287 3436 0
1 287 -272 0
1 287 -3511 0
1 287 286 0
1 3481 302 0
1 -3481 3482 0
1 -3481 242 0
1 3481 3480 0
1 -3481 347 0
1 -3481 287 0
1 -3496 3481 0
1 -3496 347 0
1 -3496 -317 0
1 -3496 287 0
1 -3511 -242 0
1 3511 -287 0
1 -3526 257 0
1 -3526 -3525 0
1 3526 287 0
1 -302 -3331 0
1 -302 3466 0
1 -302 -3375 0
1 -302 3421 0
1 -302 3390 0
1 -317 3390 0
1 317 -3496 0
1 -317 3436 0
1 -317 3405 0
1 317 3481 0
1 317 -3451 0
1 317 -316 0
1 -332 -3436 0
1 332 -3391 0
1 347 -3331 0
1 347 3496 0
1 347 3466 0
1 347 -332 0
1 347 3436 0
1 -347 3481 0
1 347 -3391 0
1 -3421 392 0
1 3421 -332 0
1 3421 3436 0
1 -3421 -302 0
1 3421 272 0
1 -3421 -407 0
1 3421 347 0
1 -3421 -3420 0
1 3421 3422 0
1 3436 -392 0
1 3436 332 0
1 3436 302 0
1 -3436 -437 0
1 3436 -317 0
1 3436 287 0
1 -3451 422 0
1 3451 -3466 0
1 3451 -317 0
1 3451 -287 0
1 3466 -3467 0
1 -3466 -272 0
1 -3466 -347 0
1 362 3301 0
1 -362 3271 0
1 -362 3436 0
1 362 3406 0
1 362 -3376 0
1 362 -3346 0
1 362 3286 0
1 -377 3301 0
1 377 -3436 0
1 377 3376 0
1 377 -3421 0
1 377 -3391 0
1 -392 -3332 0
1 392 -3271 0
1 392 -3436 0
1 392 3376 0
1 -392 -3391 0
1 -407 3302 0
1 407 3271 0
1 -407 392 0
1 -407 -3436 0
1 -407 -3376 0
1 -407 -3421 0
1 -3361 -3360 0
1 3361 482 0
1 3361 -421 0
1 -3361 392 0
1 3361 -362 0
1 3361 -332 0
1 -3361 -436 0
1 3361 407 0
1 -3361 377 0
1 -3376 451 0
1 3376 -421 0
1 3376 392 0
1 -3376 -332 0
1 -3376 3375 0
1 -3376 466 0
1 -3376 -436 0
1 3376 -377 0
1 3376 -347 0
1 -3391 452 0
1 3391 392 0
1 3391 -467 0
1 3391 437 0
1 -3391 -377 0
1 -3391 3390 0
1 3406 -482 0
1 -3406 -3405 0
1 3406 467 0
1 3406 407 0
1 3406 -377 0
1 421 3361 0
1 421 3332 0
1 421 -3271 0
1 -421 -3241 0
1 421 3211 0
1 -421 3317 0
1 -421 3256 0
1 421 3226 0
1 436 -421 0
1 436 3271 0
1 -436 -3376 0
1 436 -3347 0
1 436 -3256 0
1 436 -3226 0
1 451 3361 0
1 -451 452 0
1 451 -3211 0
1 451 -3376 0
1 451 -3347 0
1 -451 -3317 0
1 451 3287 0
1 451 3257 0
1 -451 -3226 0
1 -466 451 0
1 466 -3302 0
1 -466 -3272 0
1 466 -3211 0
1 466 -467 0
1 -3302 451 0
1 -3302 -496 0
1 3302 -466 0
1 -3302 3317 0
1 3302 511 0
1 -3317 451 0
1 -3317 421 0
1 3317 3302 0
1 -3317 -557 0
1 -3317 466 0
1 -3317 436 0
1 -3332 451 0
1 -3332 392 0
1 3332 -557 0
1 3332 497 0
1 3332 -466 0
1 -3332 436 0
1 -3347 -482 0
1 -3347 -451 0
1 3347 3332 0
1 3347 527 0
1 3347 466 0
1 3347 436 0
1 -481 482 0
1 -481 3302 0
1 481 -3211 0
1 481 3181 0
1 -481 496 0
1 481 3152 0
1 -481 3226 0
1 -481 3196 0
1 496 -481 0
1 -496 3302 0
1 496 3211 0
1 -496 -3181 0
1 496 -3317 0
1 -496 -3196 0
1 -496 -3167 0
1 -511 -3242 0
1 511 3212 0
1 511 -526 0
1 -511 -3182 0
1 -511 3257 0
1 511 3167 0
1 526 -3272 0
1 526 3212 0
1 526 -3182 0
1 526 -3317 0
1 -526 -3257 0
1 3242 481 0
1 -3242 451 0
1 -3242 526 0
1 3242 -496 0
1 3257 556 0
1 -3257 3256 0
1 -3257 -571 0
1 3257 -511 0
1 -3272 3271 0
1 -3272 -587 0
1 3272 526 0
1 3272 -466 0
1 -3272 572 0
1 3287 -572 0
1 541 -3242 0
1 541 3182 0
1 541 -3122 0
1 -541 -3092 0
1 -541 3257 0
1 541 3197 0
1 -541 -3167 0
1 -556 3137 0
1 556 3107 0
1 -556 -3242 0
1 556 -3212 0
1 -556 3152 0
1 -556 3197 0
1 -556 3227 0
1 556 -3167 0
1 571 -3212 0
1 -571 -3182 0
1 571 3227 0
1 -586 -3107 0
1 -586 587 0
1 586 -3182 0
1 -586 3197 0
1 3182 -556 0
1 3182 -526 0
1 3182 541 0
1 -3182 511 0
1 -3197 526 0
1 -3197 571 0
1 3212 3227 0
1 3212 -571 0
1 3212 511 0
1 -3227 -526 0
1 -3227 541 0
1 3227 511 0
1 -422 -3406 0
1 422 -437 0
1 -422 3482 0
1 422 -3451 0
1 -422 3421 0
1 -422 -3391 0
1 437 3466 0
1 -437 -3436 0
1 437 -3421 0
1 452 451 0
1 -452 3527 0
1 -452 -3497 0
1 -452 467 0
1 -452 -3512 0
1 467 -3437 0
1 -467 -466 0
1 3482 482 0
1 3482 3497 0
1 -3482 527 0
1 3482 437 0
1 -3497 452 0
1 -3497 422 0
1 -3497 3496 0
1 -3497 -497 0
1 3497 -3482 0
1 3512 -437 0
1 3527 437 0
1 -482 -481 0
1 482 3361 0
1 482 -3437 0
1 482 3376 0
1 482 497 0
1 -482 -3452 0
1 -482 -3422 0
1 -482 3391 0
1 497 3361 0
1 497 482 0
1 -497 3332 0
1 -497 3406 0
1 497 -3391 0
1 512 3362 0
1 512 3332 0
1 -512 -3467 0
1 -512 3437 0
1 -512 -3407 0
1 512 3377 0
1 512 3422 0
1 527 3392 0
1 -527 3362 0
1 527 3332 0
1 -527 -3497 0
1 -527 -3437 0
1 -527 3377 0
1 527 -3482 0
1 527 -3452 0
1 -3422 -482 0
1 -3422 -467 0
1 -3422 -3421 0
1 3437 482 0
1 3437 -452 0
1 3437 -587 0
1 3437 -527 0
1 -3437 497 0
1 3437 572 0
1 3452 -452 0
1 -3452 -497 0
1 3467 -482 0
1 -3467 -452 0
1 -3467 527 0
1 -557 -3272 0
1 -557 -556 0
1 -557 -3407 0
1 557 3347 0
1 557 3317 0
1 -557 -3287 0
1 -572 -3437 0
1 572 -3407 0
1 -572 3377 0
1 -587 -3392 0
1 -587 -3272 0
1 587 3437 0
1 -587 3422 0
1 3362 587 0
1 3362 -557 0
1 -3362 3377 0
1 3377 3362 0
1 -3377 -572 0
1 -3392 587 0
1 -3392 527 0
1 -3392 -572 0
1 3392 -3391 0
1 -3407 512 0
1 3407 -3392 0
1 3407 3406 0
1 -3407 -527 0
1 3407 572 0
